Version identifier: 22.1.0.0 | 2022-03-09 | 1a383f8ce
CPXPARAM_Threads                                 1
CPXPARAM_MIP_Strategy_VariableSelect             3
CPXPARAM_TimeLimit                               600
Tried aggregator 1 time.
Reduced MIP has 4520 rows, 18000 columns, and 114277 nonzeros.
Reduced MIP has 13500 binaries, 4500 generals, 0 SOSs, and 0 indicators.
Presolve time = 0.06 sec. (46.63 ticks)
Found incumbent of value 542.487189 after 0.17 sec. (119.39 ticks)
Probing time = 0.01 sec. (6.09 ticks)
Tried aggregator 1 time.
Detecting symmetries...
Reduced MIP has 4520 rows, 18000 columns, and 114277 nonzeros.
Reduced MIP has 13500 binaries, 4500 generals, 0 SOSs, and 0 indicators.
Presolve time = 0.08 sec. (59.11 ticks)
Probing time = 0.01 sec. (6.09 ticks)
Clique table members: 506.
MIP emphasis: balance optimality and feasibility.
MIP search method: dynamic search.
Parallel mode: none, using 1 thread.
Root relaxation solution time = 6.11 sec. (5384.42 ticks)

        Nodes                                         Cuts/
   Node  Left     Objective  IInf  Best Integer    Best Bound    ItCnt     Gap

*     0+    0                          542.4872        0.0000           100.00%
      0     0        0.0000  3681      542.4872        0.0000    12624  100.00%
      0     0        0.0000   772      542.4872   ZeroHalf: 1    13194  100.00%
      0     0        0.0000   958      542.4872      Cuts: 86    21869  100.00%
*     0+    0                           88.3126        0.0000           100.00%
*     0+    0                            4.2569        0.0000           100.00%
*     0+    0                            3.8783        0.0000           100.00%
*     0+    0                            0.9793        0.0000           100.00%
*     0+    0                            0.8384        0.0000           100.00%
*     0+    0                            0.7904        0.0000           100.00%
*     0+    0                            0.6741        0.0000           100.00%
*     0+    0                            0.5804        0.0000           100.00%
      0     0  -1.00000e+75     0        0.5804        0.0000    21869  100.00%
      0     2        0.0000   404        0.5804        0.0000    21869  100.00%
Elapsed time = 87.31 sec. (81810.26 ticks, tree = 0.01 MB, solutions = 9)
      1     3        0.0000  1664        0.5804        0.0000    61572  100.00%
      2     4        0.0000   904        0.5804        0.0000    73688  100.00%
      3     5        0.0000  2091        0.5804        0.0000    88684  100.00%
      4     6        0.0000  1224        0.5804        0.0000    95825  100.00%
      5     7        0.0000  1231        0.5804        0.0000    98365  100.00%
      6     8        0.0000  1328        0.5804        0.0000   120623  100.00%
      7     9        0.0000  1233        0.5804        0.0000   137306  100.00%
      8    10       -0.0000  1233        0.5804        0.0000   137348  100.00%
      9    11        0.0000  2863        0.5804        0.0000   143075  100.00%
     10    12        0.0000  1249        0.5804        0.0000   144290  100.00%
Elapsed time = 167.98 sec. (145612.35 ticks, tree = 0.27 MB, solutions = 9)
     11    13       -0.0000  1250        0.5804        0.0000   147188  100.00%
     12    14       -0.0000  1985        0.5804        0.0000   148593  100.00%
     13    15       -0.0000   979        0.5804        0.0000   156558  100.00%
     14    16        0.0000  1751        0.5804        0.0000   160443  100.00%
     16    18       -0.0000   988        0.5804        0.0000   162953  100.00%
     18    20       -0.0000  2448        0.5804        0.0000   167658  100.00%
     19    21        0.0000   964        0.5804        0.0000   171485  100.00%
     20    22        0.0000  1028        0.5804        0.0000   174405  100.00%
     22    24        0.0000  1059        0.5804        0.0000   178330  100.00%
     24    26        0.0000   967        0.5804        0.0000   181795  100.00%
Elapsed time = 197.88 sec. (162619.46 ticks, tree = 0.79 MB, solutions = 9)
     26    28        0.0000   982        0.5804        0.0000   183057  100.00%
     28    30        0.0000   953        0.5804        0.0000   187138  100.00%
     29    31        0.0000   932        0.5804        0.0000   194987  100.00%
     30    32        0.0000  1030        0.5804        0.0000   196570  100.00%
     32    34        0.0000  1046        0.5804        0.0000   201181  100.00%
     34    36        0.0000   981        0.5804        0.0000   206937  100.00%
     36    38       -0.0000   967        0.5804        0.0000   213270  100.00%
     38    40        0.0000   959        0.5804        0.0000   217979  100.00%
     40    42        0.0000  1196        0.5804        0.0000   221262  100.00%
     42    44       -0.0000   984        0.5804        0.0000   228964  100.00%
Elapsed time = 262.19 sec. (198339.10 ticks, tree = 1.51 MB, solutions = 9)
     44    46        0.0000   937        0.5804        0.0000   232326  100.00%
     46    48        0.0000   938        0.5804        0.0000   235368  100.00%
     47    49        0.0000   953        0.5804        0.0000   241380  100.00%
     48    50        0.0000   942        0.5804        0.0000   241401  100.00%
     49    51       -0.0000   989        0.5804        0.0000   245585  100.00%
     51    53       -0.0000  1529        0.5804        0.0000   249530  100.00%
     53    55        0.0000  1031        0.5804        0.0000   254477  100.00%
     55    57        0.0000   934        0.5804        0.0000   255948  100.00%
     56    58        0.0000  1064        0.5804        0.0000   261274  100.00%
     58    60        0.0000  1043        0.5804        0.0000   265847  100.00%
Elapsed time = 286.03 sec. (212095.62 ticks, tree = 2.16 MB, solutions = 9)
     60    62        0.0000   936        0.5804        0.0000   271934  100.00%
     62    64        0.0000   947        0.5804        0.0000   273773  100.00%
     64    66        0.0000   955        0.5804        0.0000   279379  100.00%
     66    68       -0.0000   887        0.5804        0.0000   280992  100.00%
     67    69       -0.0000  1043        0.5804        0.0000   289266  100.00%
     68    70        0.0000   890        0.5804        0.0000   289356  100.00%
     70    72        0.0000   905        0.5804        0.0000   293879  100.00%
     72    74       -0.0000   815        0.5804        0.0000   303850  100.00%
     74    76        0.0000   948        0.5804        0.0000   314212  100.00%
     76    78        0.0000   921        0.5804        0.0000   320259  100.00%
Elapsed time = 311.91 sec. (226314.99 ticks, tree = 2.89 MB, solutions = 9)
     78    80        0.0000  1077        0.5804        0.0000   335075  100.00%
     80    82        0.0000   951        0.5804        0.0000   338315  100.00%
     81    83        0.0000   852        0.5804        0.0000   343099  100.00%
     83    85        0.0000   836        0.5804        0.0000   344386  100.00%
     85    87        0.0000   835        0.5804        0.0000   345879  100.00%
     87    89        0.0000   832        0.5804        0.0000   347364  100.00%
     88    90        0.0000   853        0.5804        0.0000   353607  100.00%
     90    92        0.0000   795        0.5804        0.0000   357945  100.00%
     92    94        0.0000   702        0.5804        0.0000   361848  100.00%
     95    97        0.0000   647        0.5804        0.0000   365631  100.00%
Elapsed time = 337.97 sec. (240398.61 ticks, tree = 3.70 MB, solutions = 9)
     98   100        0.0000   631        0.5804        0.0000   370699  100.00%
    100   102        0.0000   591        0.5804        0.0000   376981  100.00%
    102   104        0.0000   597        0.5804        0.0000   383340  100.00%
    104   106        0.0000   601        0.5804        0.0000   387742  100.00%
    106   108        0.0000   548        0.5804        0.0000   390841  100.00%
    108   110        0.0000   524        0.5804        0.0000   396454  100.00%
    110   112        0.0000   564        0.5804        0.0000   399592  100.00%
    113   115        0.0000   488        0.5804        0.0000   404886  100.00%
    116   118        0.0000   648        0.5804        0.0000   413911  100.00%
    119   121        0.0000   410        0.5804        0.0000   419087  100.00%
Elapsed time = 361.52 sec. (254783.62 ticks, tree = 4.69 MB, solutions = 9)
    121   123        0.0000   408        0.5804        0.0000   423664  100.00%
    123   125        0.0000   458        0.5804        0.0000   430590  100.00%
    124   126        0.0000   437        0.5804        0.0000   434772  100.00%
    126   128        0.0000   411        0.5804        0.0000   440693  100.00%
    128   130        0.0000   919        0.5804        0.0000   447366  100.00%
    130   132        0.0000   652        0.5804        0.0000   454894  100.00%
    131   133        0.0000   413        0.5804        0.0000   458477  100.00%
    133   135        0.0000   348        0.5804        0.0000   462833  100.00%
    135   137        0.0000   344        0.5804        0.0000   467101  100.00%
    137   139        0.0000   386        0.5804        0.0000   473942  100.00%
Elapsed time = 390.16 sec. (273669.26 ticks, tree = 5.40 MB, solutions = 9)
    138   140        0.0000   336        0.5804        0.0000   477507  100.00%
    139   141       -0.0000   619        0.5804        0.0000   503575  100.00%
    140   142        0.0000   317        0.5804        0.0000   506593  100.00%
    141   143        0.0000   443        0.5804        0.0000   511836  100.00%
    143   145        0.0000   294        0.5804        0.0000   517637  100.00%
    144   146        0.0000   630        0.5804        0.0000   523104  100.00%
    146   148        0.0000   316        0.5804        0.0000   528641  100.00%
    148   150        0.0000   284        0.5804        0.0000   533719  100.00%
    149   151        0.0000   371        0.5804        0.0000   540262  100.00%
    150   152        0.0000   266        0.5804        0.0000   543783  100.00%
Elapsed time = 420.21 sec. (292464.98 ticks, tree = 5.98 MB, solutions = 9)
    151   153        0.0000   454        0.5804        0.0000   552395  100.00%
    152   154        0.0000   445        0.5804        0.0000   557063  100.00%
    154   156        0.0000   409        0.5804        0.0000   563148  100.00%
    156   158        0.0000   315        0.5804        0.0000   569121  100.00%
    157   159        0.0000   305        0.5804        0.0000   571968  100.00%
    159   161        0.0000   287        0.5804        0.0000   576636  100.00%
    160   162        0.0000   414        0.5804        0.0000   583905  100.00%
    162   164        0.0000   276        0.5804        0.0000   586115  100.00%
    163   165        0.0000   311        0.5804        0.0000   587895  100.00%
    167   169        0.0000   382        0.5804        0.0000   604403  100.00%
Elapsed time = 447.94 sec. (311344.22 ticks, tree = 6.69 MB, solutions = 9)
    171   173        0.0000   322        0.5804        0.0000   617979  100.00%
    172   174        0.0000   603        0.5804        0.0000   625220  100.00%
    176   178        0.0000   321        0.5804        0.0000   641851  100.00%
    179   181        0.0000   453        0.5804        0.0000   656436  100.00%
    184   186        0.0000   480        0.5804        0.0000   674970  100.00%
    189   191        0.0000   307        0.5804        0.0000   692530  100.00%
    194   196        0.0000   400        0.5804        0.0000   707769  100.00%
    197   199        0.0000   382        0.5804        0.0000   714139  100.00%
    198   200        0.0000   628        0.5804        0.0000   726465  100.00%
    201   203        0.0000   313        0.5804        0.0000   736809  100.00%
Elapsed time = 521.23 sec. (357273.20 ticks, tree = 8.04 MB, solutions = 9)
    202   204        0.0000   491        0.5804        0.0000   745645  100.00%
    204   206        0.0000   538        0.5804        0.0000   753867  100.00%
    207   209       -0.0000   514        0.5804        0.0000   760153  100.00%
    212   214        0.0000   444        0.5804        0.0000   772700  100.00%
    216   218        0.0000   519        0.5804        0.0000   790758  100.00%
    217   219        0.0000   554        0.5804        0.0000   798732  100.00%

Zero-half cuts applied:  40
Gomory fractional cuts applied:  1

Root node processing (before b&c):
  Real time             =   87.25 sec. (81770.09 ticks)
Sequential b&c:
  Real time             =  512.77 sec. (320650.99 ticks)
                          ------------
Total (root+branch&cut) =  600.02 sec. (402421.09 ticks)
Violation-free sequence bound:	198
Unscheduled:	302
Status:	Feasible
Time:	599.99
Sequence:
	19
	5
	1
	8
	14
	18
	4
	5
	3
	18
	5
	11
	13
	12
	11
	13
	5
	8
	1
	14
	11
	1
	14
	9
	1
	12
	8
	13
	5
	8
	13
	12
	3
	4
	10
	3
	4
	10
	16
	8
	17
	7
	11
	14
	1
	9
	14
	1
	8
	14
	1
	11
	5
	18
	19
	5
	18
	9
	12
	18
	3
	14
	1
	9
	12
	18
	9
	5
	18
	9
	5
	18
	19
	5
	18
	9
	5
	18
	8
	14
	1
	9
	14
	1
	11
	14
	1
	3
	14
	4
	18
	5
	11
	18
	5
	11
	13
	12
	8
	13
	5
	11
	13
	5
	11
	18
	5
	11
	13
	12
	8
	13
	12
	3
	13
	12
	11
	18
	5
	9
	13
	5
	9
	18
	5
	11
	13
	5
	11
	18
	12
	9
	13
	12
	11
	1
	14
	9
	1
	14
	9
	1
	14
	11
	1
	14
	9
	1
	14
	11
	1
	14
	9
	1
	14
	8
	0
	14
	3
	18
	5
	11
	13
	12
	9
	1
	14
	8
	18
	5
	9
	13
	12
	8
	13
	5
	3
	4
	10
	3
	16
	17
	0
	19
	10
	0
	19
	17
	2
	11
	17
	7
	11
	13
	7
	14
	1
	7
	18
	5
	14
	4
	2
	14
	8
	7
	13
	9
	12
	18
	8
	5
	13
	8
	5
	13
	8
	12
	18
	9
	5
	18
	4
	14
	18
	4
	14
	3
	1
	14
	9
	1
	5
	11
	17
	14
	11
	1
	5
	19
	1
	5
	19
	18
	5
	9
	13
	12
	8
	13
	5
	2
	7
	15
	2
	6
	15
	0
	16
	15
	0
	7
	15
	2
	6
	15
	7
	6
	15
	0
	16
	15
	0
	7
	10
	6
	11
	10
	6
	11
	5
	16
	0
	15
	7
	7
	15
	2
	7
	15
	7
	7
	4
	1
	12
	19
	18
	5
	9
	13
	12
	8
	10
	6
	9
	7
	10
	9
	2
	10
	9
	7
	10
	8
	16
	17
	3
	7
	17
	9
	8
	10
	19
	0
	17
	8
	6
	10
	0
	19
	17
	7
	19
	17
	2
	19
	17
	2
	4
	14
	3
	4
	17
	16
	8
	10
	7
	4
	10
	16
	4
	10
	3
	4
	10
	2
	9
	17
	16
	2
	15
	6
	7
	15
	16
	7
	15
	6
	2
	15
	6
	0
	15
	2
	7
	15
	7
	16
	10
	4
	3
	18
	14
	3
	4
	10
	7
	16
	15
	0
	0
	15
	16
	0
	15
	0
	0
	15
	16
	2
	17
	9
	16
	17
	9
	2
	10
	9
	2
	17
	8
	16
	17
	9
	16
	17
	8
	16
	17
	11
	6
	10
	9
	2
	17
	19
	2
	17
	19
	0
	10
	19
	0
	17
	19
	2
	17
	19
	0
	10
	4
	16
	17
	8
	16
	17
	8
	9
	14
	3
	15
	13
	19
	15
	0
	2
	5
	10
	4
	3
	10
	16
	3
	10
	19
	4
	18
	17
	0
	8
	16
	7
	15
	3
	0
	15
	16
	0
	15
	7
	16
	15
	7
	6
	15
	0
	16
	15
	7
	0
	15
	7
	2
	15
	6
	7
	15
	2
	6
	15
Violation-free sequence:
	19
	5
	1
	8
	14
	18
	4
	5
	3
	18
	5
	11
	13
	12
	11
	13
	5
	8
	1
	14
	11
	1
	14
	9
	1
	12
	8
	13
	5
	8
	13
	12
	3
	4
	10
	3
	4
	10
	16
	8
	17
	7
	11
	14
	1
	9
	14
	1
	8
	14
	1
	11
	5
	18
	19
	5
	18
	9
	12
	18
	3
	14
	1
	9
	12
	18
	9
	5
	18
	9
	5
	18
	19
	5
	18
	9
	5
	18
	8
	14
	1
	9
	14
	1
	11
	14
	1
	3
	14
	4
	18
	5
	11
	18
	5
	11
	13
	12
	8
	13
	5
	11
	13
	5
	11
	18
	5
	11
	13
	12
	8
	13
	12
	3
	13
	12
	11
	18
	5
	9
	13
	5
	9
	18
	5
	11
	13
	5
	11
	18
	12
	9
	13
	12
	11
	1
	14
	9
	1
	14
	9
	1
	14
	11
	1
	14
	9
	1
	14
	11
	1
	14
	9
	1
	14
	8
	0
	14
	3
	18
	5
	11
	13
	12
	9
	1
	14
	8
	18
	5
	9
	13
	12
	8
	13
	5
	3
	4
	10
	3
	16
	17
	0
	19
	10
	0
	19
	17
	2
	11
	17
	7
	11
	13
	7
	14
	1
	7
